instances/shortest_path/discrete_knapsack_uncertainty/nohadani_2_13.lp
\ Model nohadani_2_13
\ LP format - for model browsing. Use MPS format to capture full model detail.
\ Signature: 0x2b3c2f32d9f8b44a
Minimize
  71.00704190430693 y[0,1] + 71.00704190430693 y[1,0] + x[0,1] + x[1,0]
   + 7.100704190430694 r[0,1] + 7.100704190430694 r[1,0]
Subject To
 flow_cons_source: y[0,1] - y[1,0] = 1
 flow_cons_target: y[0,1] - y[1,0] = 1
 primal_lower: 4.339835352139652 x[0,1] + 10.97986374833621 x[1,0]
   + 33 u[0,1] + 22 u[1,0] <= 33
 mccormick1[0,1]: - u[0,1] + r[0,1] <= 0
 mccormick1[1,0]: - u[1,0] + r[1,0] <= 0
 mccormick2[0,1]: - y[0,1] + r[0,1] <= 0
 mccormick2[1,0]: - y[1,0] + r[1,0] <= 0
 mccormick3[0,1]: - y[0,1] - u[0,1] + r[0,1] >= -1
 mccormick3[1,0]: - y[1,0] - u[1,0] + r[1,0] >= -1
Bounds
Binaries
 y[0,1] y[1,0] x[0,1] x[1,0] u[0,1] u[1,0] r[0,1] r[1,0]
End
