instances/shortest_path/discrete_knapsack_uncertainty/nohadani_2_13.kp
43393
33

[4.3398353521396515 10.979863748336214]

[33 22]
